g3 1 1 0	# problem ml_10
 10 0 1 0 0	# vars, constraints, objectives, ranges, eqns
 0 1	# nonlinear constraints, objectives
 0 0	# network constraints: nonlinear, linear
 0 10 0	# nonlinear vars in constraints, objectives, both
 0 0 0 1	# linear network variables; functions; arith, flags
 0 0 0 0 0	# discrete variables: binary, integer, nonlinear (b,c,o)
 0 10	# nonzeros in Jacobian, gradients
 0 0	# max name lengths: constraints, variables
 0 0 0 0 5	# common exprs: b,c,o,c1,o1
V10 0 1
o54
10
o5
o1
v0
n9.681
n2
o5
o1
v1
n0.667
n2
o5
o1
v2
n4.783
n2
o5
o1
v3
n9.095
n2
o5
o1
v4
n3.517
n2
o5
o1
v5
n9.325
n2
o5
o1
v6
n6.544
n2
o5
o1
v7
n0.211
n2
o5
o1
v8
n5.122
n2
o5
o1
v9
n2.02
n2
V11 0 1
o54
10
o5
o1
v0
n9.4
n2
o5
o1
v1
n2.041
n2
o5
o1
v2
n3.788
n2
o5
o1
v3
n7.931
n2
o5
o1
v4
n2.882
n2
o5
o1
v5
n2.672
n2
o5
o1
v6
n3.568
n2
o5
o1
v7
n1.284
n2
o5
o1
v8
n7.033
n2
o5
o1
v9
n7.374
n2
V12 0 1
o54
10
o5
o1
v0
n8.025
n2
o5
o1
v1
n9.152
n2
o5
o1
v2
n5.114
n2
o5
o1
v3
n7.621
n2
o5
o1
v4
n4.564
n2
o5
o1
v5
n4.711
n2
o5
o1
v6
n2.996
n2
o5
o1
v7
n6.126
n2
o5
o1
v8
n0.734
n2
o5
o1
v9
n4.982
n2
V13 0 1
o54
10
o5
o1
v0
n2.196
n2
o5
o1
v1
n0.415
n2
o5
o1
v2
n5.649
n2
o5
o1
v3
n6.979
n2
o5
o1
v4
n9.51
n2
o5
o1
v5
n9.166
n2
o5
o1
v6
n6.304
n2
o5
o1
v7
n6.054
n2
o5
o1
v8
n9.377
n2
o5
o1
v9
n1.426
n2
V14 0 1
o54
10
o5
o1
v0
n8.074
n2
o5
o1
v1
n8.777
n2
o5
o1
v2
n3.467
n2
o5
o1
v3
n1.867
n2
o5
o1
v4
n6.708
n2
o5
o1
v5
n6.349
n2
o5
o1
v6
n4.534
n2
o5
o1
v7
n0.276
n2
o5
o1
v8
n7.633
n2
o5
o1
v9
n1.567
n2
O0 0
o16
o54
5
o2
o2
n0.806
o46
o3
v10
n3.141592653589793
o44
o16
o2
n3.141592653589793
v10
o2
o2
n0.517
o46
o3
v11
n3.141592653589793
o44
o16
o2
n3.141592653589793
v11
o2
o2
n0.1
o46
o3
v12
n3.141592653589793
o44
o16
o2
n3.141592653589793
v12
o2
o2
n0.908
o46
o3
v13
n3.141592653589793
o44
o16
o2
n3.141592653589793
v13
o2
o2
n0.965
o46
o3
v14
n3.141592653589793
o44
o16
o2
n3.141592653589793
v14
b
0 0 10
0 0 10
0 0 10
0 0 10
0 0 10
0 0 10
0 0 10
0 0 10
0 0 10
0 0 10
k9
0
0
0
0
0
0
0
0
0
G0 10
0 0
1 0
2 0
3 0
4 0
5 0
6 0
7 0
8 0
9 0
